2
Time limit set to 60 seconds
Running CP solver
/home/omastto1/General-Optimization-Solver/src/solvers/mmrcpsp.py:42(stream:108:6): Warning: Cumulative expression 'pulse': height is zero, expression is zero everywhere.
                                                                                               VarCumulAtom_149 = pulse(task_0_mode_0, 0)
/home/omastto1/General-Optimization-Solver/src/solvers/mmrcpsp.py:42(stream:108:1253): Warning: Cumulative expression 'pulse': height is zero, expression is zero everywhere.
                                                                                                  VarCumulAtom_198 = pulse(task_17_mode_0, 0)
/home/omastto1/General-Optimization-Solver/src/solvers/mmrcpsp.py:42(stream:109:6): Warning: Cumulative expression 'pulse': height is zero, expression is zero everywhere.
                                                                                               VarCumulAtom_202 = pulse(task_0_mode_0, 0)
/home/omastto1/General-Optimization-Solver/src/solvers/mmrcpsp.py:42(stream:109:1252): Warning: Cumulative expression 'pulse': height is zero, expression is zero everywhere.
                                                                                                  VarCumulAtom_251 = pulse(task_17_mode_0, 0)
 ! --------------------------------------------------- CP Optimizer 20.1.0.0 --
 ! Minimization problem - 69 variables, 51 constraints
 ! TimeLimit            = 60
 ! Workers              = 14
 ! LogVerbosity         = Terse
 ! Initial process time : 0.00s (0.00s extraction + 0.00s propagation)
 !  . Log search space  : 154.4 (before), 154.4 (after)
 !  . Memory usage      : 754.6 kB (before), 754.6 kB (after)
 ! Using parallel search with 14 workers.
 ! ----------------------------------------------------------------------------
 !          Best Branches  Non-fixed    W       Branch decision
                        0         69                 -
 + New bound is 31
 ! Using iterative diving.
 ! Using temporal relaxation.
 *            39       42  0.29s        1      (gap is 20.51%)
 *            36       95  0.29s        1      (gap is 13.89%)
 *            35      135  0.29s        1      (gap is 11.43%)
 *            34      187  0.29s        1      (gap is 8.82%)
 *            33      237  0.29s        1      (gap is 6.06%)
 *            32      267  0.29s        1      (gap is 3.12%)
 *            31      316  0.29s        1      (gap is 0.00%)
 ! ----------------------------------------------------------------------------
 ! Search completed, 7 solutions found.
 ! Best objective         : 31 (optimal - effective tol. is 0)
 ! Best bound             : 31
 ! ----------------------------------------------------------------------------
 ! Number of branches     : 63429
 ! Number of fails        : 1507
 ! Total memory usage     : 9.7 MB (9.6 MB CP Optimizer + 0.1 MB Concert)
 ! Time spent in solve    : 0.32s (0.32s engine + 0.00s extraction)
 ! Search speed (br. / s) : 204609.7
 ! ----------------------------------------------------------------------------
task_0: (start=0, end=0, size=0, length=0)
Task 0 is scheduled in mode 0 from 0 to 0
task_1: (start=0, end=9, size=9, length=9)
Task 1 is scheduled in mode 2 from 0 to 9
task_2: (start=0, end=9, size=9, length=9)
Task 2 is scheduled in mode 2 from 0 to 9
task_3: (start=0, end=1, size=1, length=1)
Task 3 is scheduled in mode 0 from 0 to 1
task_4: (start=1, end=10, size=9, length=9)
Task 4 is scheduled in mode 2 from 1 to 10
task_5: (start=9, end=14, size=5, length=5)
Task 5 is scheduled in mode 1 from 9 to 14
task_6: (start=9, end=11, size=2, length=2)
Task 6 is scheduled in mode 0 from 9 to 11
task_7: (start=10, end=16, size=6, length=6)
Task 7 is scheduled in mode 1 from 10 to 16
task_8: (start=11, end=19, size=8, length=8)
Task 8 is scheduled in mode 2 from 11 to 19
task_9: (start=10, end=20, size=10, length=10)
Task 9 is scheduled in mode 2 from 10 to 20
task_10: (start=16, end=26, size=10, length=10)
Task 10 is scheduled in mode 2 from 16 to 26
task_11: (start=11, end=15, size=4, length=4)
Task 11 is scheduled in mode 2 from 11 to 15
task_12: (start=11, end=13, size=2, length=2)
Task 12 is scheduled in mode 2 from 11 to 13
task_13: (start=15, end=22, size=7, length=7)
Task 13 is scheduled in mode 2 from 15 to 22
task_14: (start=20, end=26, size=6, length=6)
Task 14 is scheduled in mode 2 from 20 to 26
task_15: (start=22, end=23, size=1, length=1)
Task 15 is scheduled in mode 0 from 22 to 23
task_16: (start=26, end=31, size=5, length=5)
Task 16 is scheduled in mode 0 from 26 to 31
task_17: (start=31, end=31, size=0, length=0)
Task 17 is scheduled in mode 0 from 31 to 31
Optimal solution found
Objective value: 31
Solution is optimal.
